c File: rg100_0.3.col
c 
c This is a randomly generated graph G(n, p) where: 
c n (num vertices): 100
c p (edge probability): 0.3
c 
c Graph Properties: 
c Order: 100
c Size: 1513
c Density: 0.30565655
c Maximum Degree: 39
c Minimum Degree: 21
c Average Degree: 30.26
c 
p edge 100 1513
e 1 2
e 1 3
e 1 4
e 1 7
e 1 8
e 1 13
e 1 19
e 1 20
e 1 28
e 1 29
e 1 33
e 1 34
e 1 36
e 1 39
e 1 49
e 1 50
e 1 51
e 1 54
e 1 56
e 1 57
e 1 58
e 1 60
e 1 62
e 1 63
e 1 68
e 1 74
e 1 78
e 1 79
e 1 83
e 1 84
e 1 85
e 1 90
e 1 99
e 1 100
e 2 5
e 2 11
e 2 14
e 2 16
e 2 19
e 2 26
e 2 30
e 2 36
e 2 40
e 2 45
e 2 46
e 2 47
e 2 49
e 2 50
e 2 51
e 2 52
e 2 54
e 2 57
e 2 59
e 2 63
e 2 71
e 2 72
e 2 73
e 2 78
e 2 79
e 2 82
e 2 84
e 2 89
e 2 91
e 2 92
e 3 7
e 3 13
e 3 14
e 3 18
e 3 19
e 3 22
e 3 24
e 3 31
e 3 33
e 3 34
e 3 36
e 3 37
e 3 40
e 3 45
e 3 49
e 3 50
e 3 56
e 3 58
e 3 59
e 3 60
e 3 62
e 3 63
e 3 66
e 3 68
e 3 69
e 3 70
e 3 72
e 3 74
e 3 78
e 3 83
e 3 93
e 3 98
e 4 10
e 4 11
e 4 12
e 4 14
e 4 15
e 4 16
e 4 17
e 4 20
e 4 29
e 4 38
e 4 39
e 4 40
e 4 43
e 4 46
e 4 52
e 4 56
e 4 57
e 4 63
e 4 70
e 4 72
e 4 73
e 4 75
e 4 82
e 4 84
e 4 85
e 4 89
e 4 92
e 4 100
e 5 7
e 5 21
e 5 29
e 5 34
e 5 35
e 5 39
e 5 41
e 5 42
e 5 47
e 5 51
e 5 54
e 5 55
e 5 57
e 5 61
e 5 81
e 5 85
e 5 86
e 5 94
e 5 96
e 5 98
e 6 10
e 6 11
e 6 14
e 6 19
e 6 25
e 6 29
e 6 30
e 6 36
e 6 41
e 6 45
e 6 46
e 6 49
e 6 58
e 6 60
e 6 61
e 6 67
e 6 71
e 6 78
e 6 83
e 6 85
e 6 86
e 6 88
e 6 92
e 6 93
e 6 94
e 6 95
e 6 96
e 6 97
e 6 99
e 7 11
e 7 22
e 7 25
e 7 27
e 7 31
e 7 32
e 7 36
e 7 37
e 7 41
e 7 45
e 7 50
e 7 52
e 7 58
e 7 61
e 7 64
e 7 68
e 7 70
e 7 71
e 7 72
e 7 75
e 7 76
e 7 81
e 7 87
e 7 88
e 7 90
e 7 94
e 7 96
e 8 10
e 8 12
e 8 16
e 8 22
e 8 28
e 8 29
e 8 36
e 8 37
e 8 39
e 8 41
e 8 43
e 8 45
e 8 48
e 8 50
e 8 51
e 8 56
e 8 58
e 8 60
e 8 62
e 8 64
e 8 69
e 8 71
e 8 72
e 8 76
e 8 79
e 8 84
e 8 85
e 8 87
e 8 89
e 8 92
e 8 97
e 8 98
e 9 10
e 9 12
e 9 14
e 9 15
e 9 18
e 9 21
e 9 22
e 9 26
e 9 28
e 9 37
e 9 38
e 9 42
e 9 43
e 9 46
e 9 49
e 9 54
e 9 56
e 9 63
e 9 64
e 9 67
e 9 68
e 9 69
e 9 70
e 9 73
e 9 77
e 9 79
e 9 80
e 9 83
e 9 87
e 9 88
e 9 89
e 9 94
e 9 96
e 9 98
e 9 99
e 9 100
e 10 18
e 10 20
e 10 21
e 10 27
e 10 28
e 10 29
e 10 35
e 10 37
e 10 40
e 10 44
e 10 46
e 10 49
e 10 50
e 10 51
e 10 52
e 10 56
e 10 58
e 10 61
e 10 64
e 10 70
e 10 71
e 10 72
e 10 75
e 10 77
e 10 81
e 10 84
e 10 85
e 10 90
e 11 13
e 11 17
e 11 33
e 11 35
e 11 37
e 11 42
e 11 43
e 11 46
e 11 47
e 11 49
e 11 51
e 11 53
e 11 54
e 11 62
e 11 64
e 11 70
e 11 74
e 11 76
e 11 79
e 11 80
e 11 84
e 11 87
e 11 92
e 11 93
e 11 96
e 12 13
e 12 18
e 12 19
e 12 27
e 12 30
e 12 31
e 12 33
e 12 36
e 12 43
e 12 46
e 12 49
e 12 50
e 12 55
e 12 56
e 12 62
e 12 63
e 12 66
e 12 67
e 12 69
e 12 70
e 12 72
e 12 74
e 12 77
e 12 80
e 12 84
e 12 85
e 12 86
e 12 88
e 12 100
e 13 22
e 13 27
e 13 32
e 13 37
e 13 38
e 13 39
e 13 43
e 13 44
e 13 46
e 13 47
e 13 50
e 13 51
e 13 55
e 13 59
e 13 60
e 13 61
e 13 64
e 13 71
e 13 73
e 13 77
e 13 78
e 13 79
e 13 80
e 13 81
e 13 83
e 13 84
e 13 86
e 13 90
e 13 94
e 13 95
e 13 96
e 14 18
e 14 20
e 14 22
e 14 24
e 14 26
e 14 34
e 14 37
e 14 39
e 14 44
e 14 47
e 14 50
e 14 53
e 14 55
e 14 60
e 14 62
e 14 63
e 14 64
e 14 65
e 14 67
e 14 79
e 14 83
e 14 90
e 14 93
e 14 96
e 14 100
e 15 16
e 15 19
e 15 26
e 15 29
e 15 40
e 15 41
e 15 47
e 15 51
e 15 55
e 15 58
e 15 63
e 15 64
e 15 65
e 15 66
e 15 69
e 15 71
e 15 74
e 15 76
e 15 78
e 15 85
e 15 87
e 15 89
e 15 90
e 15 91
e 15 92
e 15 100
e 16 20
e 16 21
e 16 26
e 16 30
e 16 32
e 16 39
e 16 40
e 16 42
e 16 44
e 16 48
e 16 60
e 16 68
e 16 72
e 16 77
e 16 78
e 16 80
e 16 82
e 16 84
e 16 92
e 16 96
e 17 18
e 17 20
e 17 24
e 17 25
e 17 29
e 17 31
e 17 34
e 17 39
e 17 41
e 17 42
e 17 44
e 17 45
e 17 49
e 17 53
e 17 58
e 17 62
e 17 64
e 17 71
e 17 72
e 17 73
e 17 75
e 17 80
e 17 83
e 17 84
e 17 88
e 17 96
e 17 97
e 17 98
e 18 19
e 18 20
e 18 22
e 18 24
e 18 28
e 18 29
e 18 32
e 18 33
e 18 34
e 18 35
e 18 37
e 18 38
e 18 39
e 18 42
e 18 47
e 18 49
e 18 58
e 18 60
e 18 64
e 18 72
e 18 77
e 18 84
e 18 85
e 18 93
e 18 94
e 18 97
e 18 98
e 19 20
e 19 21
e 19 24
e 19 26
e 19 32
e 19 38
e 19 41
e 19 42
e 19 43
e 19 44
e 19 46
e 19 52
e 19 55
e 19 56
e 19 57
e 19 59
e 19 61
e 19 64
e 19 65
e 19 66
e 19 67
e 19 69
e 19 74
e 19 76
e 19 84
e 19 87
e 19 89
e 19 98
e 19 100
e 20 22
e 20 38
e 20 40
e 20 45
e 20 47
e 20 48
e 20 49
e 20 55
e 20 59
e 20 60
e 20 65
e 20 70
e 20 73
e 20 78
e 20 91
e 20 93
e 20 98
e 20 99
e 21 22
e 21 24
e 21 27
e 21 29
e 21 30
e 21 44
e 21 47
e 21 51
e 21 53
e 21 54
e 21 69
e 21 71
e 21 72
e 21 74
e 21 79
e 21 88
e 21 89
e 21 90
e 21 92
e 21 94
e 22 23
e 22 24
e 22 30
e 22 37
e 22 42
e 22 44
e 22 45
e 22 46
e 22 50
e 22 53
e 22 57
e 22 58
e 22 60
e 22 66
e 22 74
e 22 76
e 22 77
e 22 81
e 22 84
e 22 87
e 22 90
e 22 91
e 22 93
e 22 100
e 23 35
e 23 37
e 23 38
e 23 39
e 23 43
e 23 46
e 23 48
e 23 52
e 23 55
e 23 59
e 23 60
e 23 61
e 23 65
e 23 66
e 23 67
e 23 68
e 23 71
e 23 80
e 23 83
e 23 87
e 23 91
e 23 96
e 23 98
e 24 27
e 24 29
e 24 36
e 24 41
e 24 42
e 24 44
e 24 45
e 24 51
e 24 54
e 24 55
e 24 57
e 24 58
e 24 62
e 24 63
e 24 66
e 24 68
e 24 69
e 24 72
e 24 78
e 24 84
e 24 86
e 24 90
e 24 94
e 24 97
e 24 98
e 24 99
e 24 100
e 25 26
e 25 33
e 25 36
e 25 41
e 25 42
e 25 44
e 25 45
e 25 48
e 25 52
e 25 55
e 25 57
e 25 60
e 25 61
e 25 63
e 25 66
e 25 68
e 25 71
e 25 74
e 25 75
e 25 80
e 25 83
e 25 85
e 25 88
e 25 89
e 25 93
e 25 96
e 25 97
e 25 99
e 25 100
e 26 27
e 26 29
e 26 33
e 26 34
e 26 37
e 26 38
e 26 39
e 26 44
e 26 47
e 26 48
e 26 54
e 26 55
e 26 59
e 26 64
e 26 67
e 26 72
e 26 76
e 26 81
e 26 83
e 26 84
e 26 86
e 26 87
e 26 90
e 26 93
e 26 99
e 26 100
e 27 28
e 27 30
e 27 33
e 27 34
e 27 41
e 27 44
e 27 46
e 27 51
e 27 54
e 27 59
e 27 62
e 27 65
e 27 71
e 27 73
e 27 79
e 27 80
e 27 81
e 27 83
e 27 84
e 27 87
e 27 90
e 27 93
e 27 99
e 28 31
e 28 32
e 28 34
e 28 36
e 28 40
e 28 41
e 28 44
e 28 50
e 28 51
e 28 54
e 28 61
e 28 67
e 28 79
e 28 86
e 28 88
e 28 90
e 28 97
e 29 34
e 29 35
e 29 41
e 29 49
e 29 50
e 29 52
e 29 54
e 29 55
e 29 57
e 29 63
e 29 70
e 29 71
e 29 72
e 29 74
e 29 78
e 29 79
e 29 80
e 29 82
e 29 84
e 29 86
e 29 95
e 29 96
e 29 99
e 30 34
e 30 35
e 30 37
e 30 41
e 30 42
e 30 47
e 30 48
e 30 59
e 30 60
e 30 63
e 30 65
e 30 67
e 30 76
e 30 77
e 30 79
e 30 80
e 30 84
e 30 94
e 31 34
e 31 44
e 31 49
e 31 52
e 31 54
e 31 55
e 31 57
e 31 59
e 31 60
e 31 61
e 31 63
e 31 64
e 31 70
e 31 76
e 31 88
e 31 94
e 31 96
e 31 100
e 32 33
e 32 35
e 32 36
e 32 38
e 32 39
e 32 50
e 32 58
e 32 59
e 32 63
e 32 67
e 32 70
e 32 74
e 32 75
e 32 78
e 32 79
e 32 82
e 32 85
e 32 89
e 32 91
e 32 95
e 32 98
e 32 100
e 33 36
e 33 37
e 33 40
e 33 43
e 33 44
e 33 46
e 33 50
e 33 51
e 33 57
e 33 61
e 33 62
e 33 65
e 33 67
e 33 71
e 33 78
e 33 81
e 33 86
e 33 90
e 33 91
e 33 94
e 33 97
e 34 37
e 34 41
e 34 47
e 34 51
e 34 53
e 34 56
e 34 57
e 34 58
e 34 61
e 34 65
e 34 70
e 34 72
e 34 73
e 34 74
e 34 78
e 34 79
e 34 80
e 34 83
e 34 84
e 34 88
e 34 89
e 34 90
e 34 94
e 34 95
e 34 100
e 35 37
e 35 43
e 35 44
e 35 45
e 35 47
e 35 48
e 35 49
e 35 53
e 35 58
e 35 59
e 35 61
e 35 63
e 35 69
e 35 70
e 35 71
e 35 73
e 35 79
e 35 81
e 35 85
e 35 87
e 35 96
e 36 38
e 36 41
e 36 42
e 36 44
e 36 45
e 36 46
e 36 52
e 36 53
e 36 54
e 36 58
e 36 64
e 36 65
e 36 66
e 36 67
e 36 72
e 36 77
e 36 84
e 36 87
e 36 88
e 36 90
e 36 96
e 37 44
e 37 47
e 37 50
e 37 52
e 37 54
e 37 55
e 37 56
e 37 59
e 37 65
e 37 66
e 37 78
e 37 81
e 37 82
e 37 84
e 37 89
e 37 90
e 37 93
e 37 96
e 37 100
e 38 43
e 38 47
e 38 54
e 38 55
e 38 61
e 38 65
e 38 66
e 38 68
e 38 75
e 38 76
e 38 79
e 38 80
e 38 84
e 38 89
e 38 92
e 38 98
e 39 40
e 39 41
e 39 43
e 39 56
e 39 60
e 39 61
e 39 65
e 39 67
e 39 72
e 39 76
e 39 78
e 39 80
e 39 83
e 39 88
e 39 89
e 39 93
e 39 94
e 39 97
e 40 42
e 40 43
e 40 44
e 40 48
e 40 49
e 40 56
e 40 57
e 40 59
e 40 64
e 40 71
e 40 74
e 40 75
e 40 76
e 40 77
e 40 79
e 40 82
e 40 83
e 40 84
e 40 87
e 40 88
e 40 89
e 40 90
e 40 92
e 40 100
e 41 42
e 41 46
e 41 49
e 41 52
e 41 56
e 41 59
e 41 63
e 41 64
e 41 72
e 41 76
e 41 82
e 41 85
e 41 88
e 41 89
e 41 98
e 42 52
e 42 56
e 42 59
e 42 62
e 42 67
e 42 71
e 42 72
e 42 73
e 42 76
e 42 81
e 42 86
e 42 98
e 43 49
e 43 52
e 43 53
e 43 55
e 43 56
e 43 58
e 43 61
e 43 63
e 43 66
e 43 67
e 43 79
e 43 81
e 43 83
e 43 86
e 43 88
e 43 91
e 43 93
e 44 45
e 44 47
e 44 48
e 44 51
e 44 55
e 44 57
e 44 62
e 44 68
e 44 69
e 44 70
e 44 75
e 44 78
e 44 84
e 44 85
e 44 88
e 44 94
e 44 97
e 45 48
e 45 49
e 45 51
e 45 53
e 45 56
e 45 60
e 45 65
e 45 67
e 45 68
e 45 73
e 45 76
e 45 81
e 45 85
e 45 92
e 45 95
e 45 98
e 46 47
e 46 49
e 46 50
e 46 61
e 46 62
e 46 63
e 46 67
e 46 68
e 46 80
e 46 85
e 46 87
e 46 89
e 46 94
e 46 98
e 46 99
e 47 56
e 47 62
e 47 64
e 47 66
e 47 68
e 47 70
e 47 71
e 47 73
e 47 76
e 47 77
e 47 80
e 47 82
e 47 83
e 47 84
e 47 85
e 47 86
e 47 93
e 47 99
e 48 50
e 48 52
e 48 56
e 48 60
e 48 63
e 48 71
e 48 72
e 48 73
e 48 75
e 48 82
e 48 83
e 48 84
e 48 85
e 48 86
e 48 93
e 48 94
e 48 95
e 49 51
e 49 52
e 49 53
e 49 54
e 49 58
e 49 60
e 49 62
e 49 63
e 49 66
e 49 70
e 49 74
e 49 76
e 49 83
e 49 86
e 50 53
e 50 54
e 50 57
e 50 58
e 50 60
e 50 67
e 50 73
e 50 74
e 50 75
e 50 76
e 50 81
e 50 90
e 50 92
e 50 94
e 50 95
e 50 98
e 50 99
e 51 55
e 51 56
e 51 57
e 51 59
e 51 60
e 51 62
e 51 64
e 51 71
e 51 72
e 51 74
e 51 75
e 51 81
e 51 86
e 51 87
e 51 89
e 51 92
e 51 93
e 51 98
e 52 57
e 52 61
e 52 65
e 52 67
e 52 70
e 52 72
e 52 75
e 52 82
e 52 92
e 52 93
e 52 94
e 52 95
e 52 99
e 53 55
e 53 59
e 53 60
e 53 68
e 53 79
e 53 80
e 53 89
e 53 90
e 53 93
e 53 94
e 53 97
e 53 98
e 54 57
e 54 58
e 54 60
e 54 63
e 54 66
e 54 69
e 54 95
e 54 96
e 54 97
e 54 99
e 55 56
e 55 61
e 55 62
e 55 64
e 55 67
e 55 68
e 55 70
e 55 71
e 55 73
e 55 80
e 55 82
e 55 83
e 55 84
e 55 85
e 55 86
e 55 89
e 55 90
e 55 91
e 55 95
e 55 100
e 56 61
e 56 62
e 56 67
e 56 68
e 56 70
e 56 80
e 56 84
e 56 88
e 56 89
e 56 90
e 56 96
e 57 67
e 57 70
e 57 78
e 57 79
e 57 83
e 57 86
e 57 93
e 57 96
e 57 97
e 57 98
e 57 99
e 58 61
e 58 65
e 58 70
e 58 71
e 58 77
e 58 78
e 58 79
e 58 84
e 58 90
e 58 91
e 58 96
e 58 97
e 58 98
e 59 66
e 59 67
e 59 70
e 59 71
e 59 75
e 59 78
e 59 80
e 59 88
e 59 90
e 59 91
e 59 92
e 59 97
e 60 63
e 60 67
e 60 68
e 60 75
e 60 85
e 60 93
e 60 95
e 61 62
e 61 67
e 61 68
e 61 69
e 61 71
e 61 75
e 61 80
e 61 82
e 61 83
e 61 87
e 61 96
e 61 97
e 62 68
e 62 70
e 62 75
e 62 78
e 62 80
e 62 81
e 62 82
e 62 83
e 62 85
e 62 92
e 62 93
e 62 94
e 62 95
e 62 97
e 62 99
e 63 65
e 63 67
e 63 77
e 63 78
e 63 80
e 63 81
e 63 82
e 63 87
e 63 89
e 63 90
e 63 91
e 63 93
e 63 95
e 63 99
e 63 100
e 64 69
e 64 70
e 64 73
e 64 74
e 64 77
e 64 79
e 64 80
e 64 83
e 64 84
e 64 87
e 64 88
e 64 90
e 64 92
e 64 93
e 64 94
e 64 97
e 64 100
e 65 67
e 65 76
e 65 80
e 65 87
e 65 94
e 65 98
e 66 68
e 66 72
e 66 73
e 66 74
e 66 78
e 66 80
e 66 84
e 66 88
e 66 94
e 67 68
e 67 69
e 67 72
e 67 76
e 67 77
e 67 82
e 67 100
e 68 69
e 68 70
e 68 73
e 68 75
e 68 84
e 68 85
e 68 87
e 68 88
e 68 89
e 68 97
e 68 100
e 69 71
e 69 72
e 69 73
e 69 79
e 69 86
e 69 89
e 69 91
e 69 95
e 69 99
e 69 100
e 70 73
e 70 76
e 70 78
e 70 79
e 70 81
e 70 87
e 70 91
e 70 92
e 70 94
e 70 95
e 70 96
e 70 100
e 71 75
e 71 76
e 71 82
e 71 88
e 71 90
e 71 98
e 72 81
e 72 84
e 72 86
e 72 87
e 72 92
e 72 97
e 72 100
e 73 76
e 73 77
e 73 78
e 73 80
e 73 81
e 73 90
e 73 92
e 73 97
e 73 99
e 74 77
e 74 81
e 74 82
e 74 85
e 74 89
e 74 90
e 74 91
e 74 97
e 74 99
e 74 100
e 75 81
e 75 85
e 75 91
e 75 92
e 75 94
e 75 96
e 75 97
e 75 99
e 76 77
e 76 78
e 76 80
e 76 84
e 76 90
e 76 92
e 76 93
e 76 94
e 76 100
e 77 80
e 77 83
e 77 84
e 77 91
e 77 97
e 77 99
e 77 100
e 78 79
e 78 81
e 78 83
e 78 89
e 78 90
e 78 95
e 78 98
e 78 100
e 79 80
e 79 81
e 79 82
e 79 86
e 79 89
e 79 91
e 79 92
e 79 93
e 79 94
e 79 99
e 80 81
e 80 82
e 80 91
e 80 92
e 80 93
e 80 94
e 81 85
e 81 90
e 81 91
e 81 96
e 81 99
e 82 84
e 82 94
e 82 95
e 82 99
e 83 89
e 83 92
e 83 95
e 83 98
e 84 86
e 84 89
e 84 94
e 85 94
e 85 96
e 85 100
e 86 92
e 86 94
e 86 97
e 87 90
e 87 98
e 87 99
e 87 100
e 88 90
e 89 93
e 89 94
e 89 96
e 90 93
e 90 95
e 90 98
e 90 99
e 91 92
e 92 93
e 92 95
e 92 97
e 92 99
e 93 95
e 94 95
e 94 100
e 96 98
e 97 99
e 97 100
